h=7;
b=[|-1,-1,-1,-1,-1,9,1,7,3,8|2,8,5,-1,-1,0,3,9,1,-1|1,3,9,0,8,7,2,-1,6,4|6,-1,-1,-1,1,-1,8,0,7,9|7,-1,-1,9,5,2,-1,4,8,-1|2,3,-1,-1,1,8,9,0,5,6|8,1,6,9,-1,5,-1,-1,2,0|];
s=[26,24,41,31,29,35,31,29,32,37]